350 156 1  1 
80 31 1  1 
10 4 1  1 
70 28 1  1 
40 17 1  1 
30 12 1  1 
200 80 1  1 
50 21 1  1 
40 16 1  1 
350 152 1  1 
300 130 1  1 
20 8 1  1 
200 88 1  1 
300 131 1  1 
60 21 1  1 
250 112 1  1 
90 35 1  1 
60 24 1  1 
10 4 1  1 
30 12 1  1 
250 108 1  1 
250 109 1  1 
60 24 1  1 
20 8 1  1 
40 15 1  1 
100 40 1  1 
90 36 1  1 
70 28 1  1 
250 107 1  1 
30 10 1  1 
70 29 1  1 
50 19 1  1 
50 19 1  1 
90 36 1  1 
10 3 1  1 
50 19 1  1 
300 134 1  1 
10 4 1  1 
300 132 1  1 
150 64 1  1 
70 29 1  1 
300 128 1  1 
150 60 1  1 
150 62 1  1 
350 153 1  1 
50 21 1  1 
250 108 1  1 
90 36 1  1 
80 31 1  1 
350 155 1  1 
150 64 1  1 
200 86 1  1 
20 8 1  1 
60 24 1  1 
350 152 1  1 
10 5 1  1 
200 89 1  1 
250 107 1  1 
30 12 1  1 
30 11 1  1 
40 16 1  1 
40 14 1  1 
60 24 1  1 
300 130 1  1 
40 17 1  1 
70 29 1  1 
10 4 1  1 
60 25 1  1 
350 155 1  1 
20 8 1  1 
20 8 1  1 
150 59 1  1 
100 40 1  1 
70 30 1  1 
200 80 1  1 
10 3 1  1 
300 130 1  1 
60 26 1  1 
250 111 1  1 
60 26 1  1 
90 34 1  1 
150 64 1  1 
60 25 1  1 
100 41 1  1 
100 45 1  1 
30 13 1  1 
350 159 1  1 
20 8 1  1 
90 37 1  1 
20 9 1  1 
80 32 1  1 
80 32 1  1 
30 13 1  1 
350 153 1  1 
60 26 1  1 
100 40 1  1 
20 7 1  1 
100 40 1  1 
40 17 1  1 
150 64 1  1 
50 18 1  1 
100 42 1  1 
50 21 1  1 
50 18 1  1 
70 29 1  1 
20 8 1  1 
100 42 1  1 
70 29 1  1 
80 31 1  1 
200 87 1  1 
300 127 1  1 
30 11 1  1 
10 4 1  1 
250 107 1  1 
40 15 1  1 
300 132 1  1 
90 36 1  1 
30 13 1  1 
150 62 1  1 
40 16 1  1 
350 159 1  1 
70 28 1  1 
250 103 1  1 
10 5 1  1 
40 18 1  1 
20 8 1  1 
90 39 1  1 
250 113 1  1 
150 65 1  1 
30 12 1  1 
80 33 1  1 
50 23 1  1 
70 30 1  1 
200 87 1  1 
150 64 1  1 
80 31 1  1 
100 42 1  1 
200 84 1  1 
50 19 1  1 
80 33 1  1 
80 31 1  1 
350 148 1  1 
200 88 1  1 
90 37 1  1 
100 41 1  1 
10 4 1  1 
90 36 1  1 
80 33 1  1 
200 89 1  1 
300 135 1  1 
